NumActors = 11;
NumScenes = 15;
NumLocations = 2;
NumPrecedences = 5;

ActorCost = [7, 15, 14, 8, 5, 13, 15, 10, 16, 5, 17];
LocationCost = [0, 19];
SceneDuration = [3, 3, 1, 3, 2, 1, 2, 3, 2, 2, 3, 3, 5, 5, 4];
SceneLocation = [1, 0, 1, 1, 0, 0, 0, 1, 1, 0, 0, 1, 0, 0, 1];
Presence = [|1, 0, 1, 1, 0, 0, 1, 1, 1, 0, 1, 1, 1, 0, 0
            |1, 1, 1, 1, 0, 0, 0, 0, 1, 0, 1, 0, 1, 1, 1
            |0, 0, 1, 1, 0, 0, 0, 1, 0, 1, 1, 0, 0, 0, 0
            |0, 0, 1, 0, 0, 0, 1, 0, 1, 0, 0, 0, 0, 1, 1
            |0, 1, 0, 1, 0, 0, 0, 1, 0, 0, 0, 0, 0, 0, 1
            |0, 0, 1, 1, 0, 0, 1, 1, 0, 0, 0, 0, 0, 0, 1
            |1, 0, 1, 1, 1, 0, 0, 1, 1, 1, 1, 0, 1, 1, 0
            |0, 1, 1, 1, 0, 1, 1, 1, 0, 1, 0, 0, 1, 1, 0
            |0, 1, 1, 0, 1, 0, 1, 0, 0, 0, 0, 0, 0, 0, 0
            |1, 0, 1, 0, 0, 1, 0, 0, 1, 0, 0, 0, 0, 0, 0
            |0, 1, 1, 0, 1, 1, 1, 0, 1, 1, 0, 0, 1, 1, 0|];
Precedences = [|5, 1
               |14, 8
               |5, 10
               |11, 1
               |10, 0|];